; benchmark generated from python API
(set-info :status unknown)
(declare-datatypes ((RealState 0)) (((RMk1 (rval1 Real)) (RMk2 (rval2 Real)))))
 (assert
 (forall ((|v9:0| Real) )(exists ((|v8:1_st| RealState) (val!1480 Real) )(forall ((|v7:2| Real) )(exists ((|v6:3_st| RealState) (val!1481 Real) )(forall ((|v5:4| Real) )(exists ((|v4:5_st| RealState) (val!1482 Real) )(forall ((|v3:6| Real) )(exists ((|v2:7_st| RealState) (val!1483 Real) )(forall ((|v1:8| Real) )(exists ((|v0:9_st| RealState) (val!1484 Real) )(let ((?x114 (- 2.0)))
 (let ((?x1350 (* 5.0 |v1:8|)))
 (let ((?x711 (+ (+ (* (- 15.0) (rval2 |v2:7_st|)) (* (- 14.0) (rval2 |v0:9_st|))) ?x1350)))
 (let ((?x54 (- 17.0)))
 (let ((?x572 (+ (+ (* 12.0 |v5:4|) (* (- 5.0) |v7:2|)) (* (- 6.0) (rval2 |v8:1_st|)))))
 (let ((?x548 (rval2 |v0:9_st|)))
 (let ((?x705 (* 12.0 ?x548)))
 (let ((?x1070 (- 18.0)))
 (let (($x28 (<= (+ (+ (* 10.0 |v9:0|) (* (- 12.0) |v3:6|)) (* 4.0 (rval2 |v4:5_st|))) ?x1070)))
 (let (($x86 (or $x28 (<= (+ (+ (* 19.0 |v7:2|) (* ?x54 (rval2 |v6:3_st|))) ?x705) 5.0))))
 (let ((?x625 (- 9.0)))
 (let (($x994 (<= (+ (+ (* (- 8.0) |v7:2|) (* 3.0 |v9:0|)) (* 2.0 (rval2 |v4:5_st|))) ?x625)))
 (let (($x677 (<= (+ (+ (* (- 13.0) (rval2 |v6:3_st|)) (rval2 |v2:7_st|)) (rval2 |v4:5_st|)) 8.0)))
 (let ((?x1372 (- 8.0)))
 (let (($x228 (<= (+ (+ (* (- 5.0) |v7:2|) (* 14.0 ?x548)) (* ?x625 |v1:8|)) ?x1372)))
 (let (($x298 (<= (+ (+ (* 14.0 |v1:8|) (* (- 10.0) |v1:8|)) (* 11.0 |v1:8|)) 18.0)))
 (let (($x141 (or (and (or $x298 $x228) (and $x677 $x994)) (and $x86 (and (<= ?x572 ?x54) (<= ?x711 ?x114))))))
 (let ((?x682 (- 5.0)))
 (let (($x199 (<= (+ (+ (* ?x625 |v9:0|) (* 13.0 (rval2 |v4:5_st|))) (* (- 13.0) |v1:8|)) ?x682)))
 (let ((?x1290 (+ (+ (* ?x1070 (rval2 |v2:7_st|)) (* (- 12.0) (rval2 |v6:3_st|))) (* (- 14.0) |v3:6|))))
 (let (($x219 (and (<= ?x1290 8.0) (<= (+ (+ (* 6.0 |v1:8|) (* ?x1372 (rval2 |v8:1_st|))) ?x705) ?x1372))))
 (let ((?x415 (- 6.0)))
 (let ((?x672 (rval2 |v8:1_st|)))
 (let ((?x1249 (* 4.0 ?x672)))
 (let (($x1131 (<= (+ (+ (* 10.0 (rval2 |v4:5_st|)) (* 14.0 (rval2 |v4:5_st|))) ?x1249) ?x415)))
 (let ((?x1120 (+ (+ (* ?x625 (rval2 |v4:5_st|)) (* 3.0 (rval2 |v4:5_st|))) (* 8.0 (rval2 |v6:3_st|)))))
 (let (($x1126 (<= (+ (+ (* 2.0 |v3:6|) (* 8.0 |v5:4|)) (* 4.0 (rval2 |v6:3_st|))) 0.0)))
 (let ((?x1205 (+ (+ (* 4.0 (rval2 |v4:5_st|)) (* (- 10.0) |v5:4|)) (* (- 19.0) |v5:4|))))
 (let (($x120 (and (or (or (<= ?x1205 18.0) $x1126) (or (<= ?x1120 0.0) $x1131)) (and $x219 $x199))))
 (let ((?x516 (- 3.0)))
 (let (($x1110 (<= (+ (+ (* 3.0 (rval2 |v6:3_st|)) (* ?x516 |v7:2|)) (* ?x54 (rval2 |v2:7_st|))) ?x516)))
 (let (($x1137 (<= (+ (+ (* ?x415 |v7:2|) (* (- 13.0) ?x672)) (* ?x682 |v1:8|)) 17.0)))
 (let ((?x1018 (- 11.0)))
 (let ((?x380 (+ (+ (* (- 1.0) (rval2 |v4:5_st|)) (* 2.0 |v5:4|)) (* (- 7.0) (rval2 |v6:3_st|)))))
 (let (($x826 (<= (+ (+ (* 19.0 (rval2 |v4:5_st|)) (* (- 20.0) ?x548)) (* ?x54 ?x672)) ?x1018)))
 (let (($x1036 (<= (+ (+ (* ?x682 (rval2 |v6:3_st|)) (* (- 4.0) |v5:4|)) (* 13.0 ?x672)) ?x625)))
 (let (($x837 (<= (+ (+ (* 15.0 (rval2 |v6:3_st|)) (* 13.0 ?x672)) (* 19.0 |v3:6|)) 19.0)))
 (let ((?x1019 (* 8.0 |v7:2|)))
 (let (($x503 (<= (+ (+ (* ?x625 (rval2 |v6:3_st|)) (* 16.0 (rval2 |v6:3_st|))) ?x1019) 17.0)))
 (let (($x739 (and (<= (+ (+ (* 15.0 |v7:2|) (* 3.0 |v7:2|)) (* 11.0 |v1:8|)) ?x54) $x503)))
 (let (($x658 (or (or $x739 (or $x837 $x1036)) (and (or $x826 (<= ?x380 ?x1018)) (and $x1137 $x1110)))))
 (let (($x735 (<= (+ (+ (* 10.0 |v7:2|) (* 2.0 (rval2 |v2:7_st|))) (* ?x682 ?x672)) 5.0)))
 (let (($x963 (or $x735 (<= (+ (+ (* ?x625 ?x548) (* 17.0 |v5:4|)) (* 15.0 |v1:8|)) 16.0))))
 (let (($x710 (<= (+ (+ (* 13.0 |v3:6|) (* 2.0 |v9:0|)) (* (- 20.0) |v3:6|)) 14.0)))
 (let (($x1219 (<= (+ (+ (* 4.0 |v9:0|) (* 13.0 |v1:8|)) (* 7.0 (rval2 |v2:7_st|))) 1.0)))
 (let (($x556 (<= (+ (+ (* 8.0 (rval2 |v4:5_st|)) (* 12.0 |v1:8|)) (* ?x516 |v5:4|)) 19.0)))
 (let (($x1073 (<= (+ (+ (* (- 14.0) ?x548) (* ?x625 |v3:6|)) (* (- 20.0) |v3:6|)) 7.0)))
 (let ((?x1234 (+ (+ (* (- 15.0) (rval2 |v4:5_st|)) (* 0.0 (rval2 |v4:5_st|))) (* ?x1070 |v9:0|))))
 (let (($x956 (and (or (and (<= ?x1234 5.0) $x1073) $x556) (or (or $x1219 $x710) $x963))))
 (let (($x945 (not (= |v0:9_st| (RMk1 val!1484)))))
 (let (($x729 (not (= |v2:7_st| (RMk1 val!1483)))))
 (let (($x655 (not (= |v4:5_st| (RMk1 val!1482)))))
 (let (($x501 (not (= |v6:3_st| (RMk1 val!1481)))))
 (let (($x699 (not (= |v8:1_st| (RMk1 val!1480)))))
 (and $x699 $x501 $x655 $x729 $x945 (or (and $x956 $x658) (or $x120 $x141))))))))))))))))))))))))))))))))))))))))))))))))))))))))))
 )
 )
 )
 )
 )
 )
 )
 )
 )
 )
(check-sat)
